DIMENSION: 18
EDGE_WEIGHT_TYPE: EXPLICIT
EDGE_WEIGHT_FORMAT: FULL_MATRIX
EDGE_WEIGHT_SECTION:
32767 32767 32767 32767 37 32767 32767 23 32767 32767 32767 32767 34 32767 9 68 67 32767 
32767 32767 6 79 32767 32767 32767 84 32767 32767 32767 32767 36 47 32767 11 32767 44 
32767 6 32767 32767 53 32767 32767 32767 46 32767 32767 32767 97 31 74 83 32767 32767 
32767 79 32767 32767 32767 32767 6 63 32767 32767 12 32767 32767 32767 32767 32767 32767 32767 
37 32767 53 32767 32767 11 35 32767 25 54 32767 37 72 55 100 86 32767 32767 
32767 32767 32767 32767 11 32767 32767 32767 32767 94 27 32767 32767 59 32767 32767 39 32767 
32767 32767 32767 6 35 32767 32767 44 94 32767 32767 32767 48 26 32767 32767 32767 32767 
23 84 32767 63 32767 32767 44 32767 32767 32767 32767 32767 32767 22 64 32767 32767 32767 
32767 32767 46 32767 25 32767 94 32767 32767 32767 32767 32767 32767 32767 32767 32767 72 79 
32767 32767 32767 32767 54 94 32767 32767 32767 32767 3 32767 32767 32767 72 32767 46 32767 
32767 32767 32767 12 32767 27 32767 32767 32767 3 32767 32767 23 32767 38 32767 32767 32767 
32767 32767 32767 32767 37 32767 32767 32767 32767 32767 32767 32767 32767 32767 80 32767 32767 32767 
34 36 97 32767 72 32767 48 32767 32767 32767 23 32767 32767 32767 32767 32767 32767 32767 
32767 47 31 32767 55 59 26 22 32767 32767 32767 32767 32767 32767 32767 32767 32767 23 
9 32767 74 32767 100 32767 32767 64 32767 72 38 80 32767 32767 32767 94 32767 32767 
68 11 83 32767 86 32767 32767 32767 32767 32767 32767 32767 32767 32767 94 32767 32767 32767 
67 32767 32767 32767 32767 39 32767 32767 72 46 32767 32767 32767 32767 32767 32767 32767 18 
32767 44 32767 32767 32767 32767 32767 32767 79 32767 32767 32767 32767 23 32767 32767 18 32767 
EOF